30
-1 -1 -1 -1 15 -1 -1 -1 -1 86 -1 -1 -1 -1 -1 -1 -1 -1 -1 64 -1 -1 -1 -1 -1 -1 -1 -1 -1 -1
-1 -1 92 -1 -1 -1 -1 -1 -1 -1 -1 37 -1 -1 -1 -1 -1 -1 -1 35 -1 -1 -1 -1 -1 -1 -1 -1 -1 -1
-1 92 -1 26 -1 -1 -1 -1 -1 -1 -1 -1 -1 -1 -1 -1 -1 -1 -1 -1 27 21 -1 -1 -1 -1 -1 -1 -1 -1
-1 -1 26 -1 -1 -1 -1 -1 -1 -1 -1 -1 -1 -1 -1 -1 -1 59 -1 -1 -1 -1 -1 -1 -1 -1 -1 -1 -1 -1
15 -1 -1 -1 -1 -1 26 -1 -1 -1 -1 -1 -1 -1 -1 27 -1 -1 -1 -1 36 -1 -1 -1 -1 -1 -1 -1 -1 -1
-1 -1 -1 -1 -1 -1 -1 2 -1 56 19 -1 -1 68 81 -1 -1 -1 -1 -1 29 -1 -1 -1 -1 -1 -1 -1 80 -1
-1 -1 -1 -1 26 -1 -1 -1 -1 -1 73 -1 23 -1 -1 -1 -1 30 -1 -1 -1 -1 -1 -1 -1 -1 -1 -1 -1 -1
-1 -1 -1 -1 -1 2 -1 -1 -1 -1 -1 24 -1 -1 70 -1 -1 -1 -1 -1 -1 -1 -1 -1 35 -1 -1 56 -1 -1
-1 -1 -1 -1 -1 -1 -1 -1 -1 -1 -1 -1 -1 67 -1 -1 -1 -1 -1 -1 -1 58 -1 -1 86 -1 -1 -1 -1 -1
86 -1 -1 -1 -1 56 -1 -1 -1 -1 -1 -1 -1 -1 -1 -1 -1 -1 42 -1 -1 -1 -1 -1 -1 -1 1 -1 41 -1
-1 -1 -1 -1 -1 19 73 -1 -1 -1 -1 -1 -1 -1 -1 -1 -1 -1 -1 -1 -1 -1 -1 -1 -1 -1 -1 -1 -1 -1
-1 37 -1 -1 -1 -1 -1 24 -1 -1 -1 -1 26 -1 -1 -1 -1 -1 -1 -1 -1 -1 -1 -1 -1 -1 -1 -1 -1 -1
-1 -1 -1 -1 -1 -1 23 -1 -1 -1 -1 26 -1 -1 -1 -1 -1 70 45 -1 -1 -1 -1 -1 -1 -1 -1 -1 -1 -1
-1 -1 -1 -1 -1 68 -1 -1 67 -1 -1 -1 -1 -1 -1 -1 -1 73 -1 -1 -1 51 -1 80 -1 -1 -1 92 -1 -1
-1 -1 -1 -1 -1 81 -1 70 -1 -1 -1 -1 -1 -1 -1 -1 29 -1 -1 -1 -1 -1 99 -1 39 -1 -1 -1 -1 -1
-1 -1 -1 -1 27 -1 -1 -1 -1 -1 -1 -1 -1 -1 -1 -1 -1 -1 25 -1 -1 -1 -1 -1 -1 -1 -1 -1 -1 19
-1 -1 -1 -1 -1 -1 -1 -1 -1 -1 -1 -1 -1 -1 29 -1 -1 -1 -1 50 -1 5 -1 68 -1 -1 -1 -1 -1 -1
-1 -1 -1 59 -1 -1 30 -1 -1 -1 -1 -1 70 73 -1 -1 -1 -1 -1 -1 78 -1 -1 -1 -1 95 -1 -1 -1 57
-1 -1 -1 -1 -1 -1 -1 -1 -1 42 -1 -1 45 -1 -1 25 -1 -1 -1 -1 -1 -1 60 -1 -1 -1 -1 -1 67 -1
64 35 -1 -1 -1 -1 -1 -1 -1 -1 -1 -1 -1 -1 -1 -1 50 -1 -1 -1 -1 -1 -1 -1 -1 -1 -1 -1 -1 -1
-1 -1 27 -1 36 29 -1 -1 -1 -1 -1 -1 -1 -1 -1 -1 -1 78 -1 -1 -1 -1 8 -1 -1 78 -1 -1 -1 89
-1 -1 21 -1 -1 -1 -1 -1 58 -1 -1 -1 -1 51 -1 -1 5 -1 -1 -1 -1 -1 -1 84 -1 -1 -1 -1 -1 -1
-1 -1 -1 -1 -1 -1 -1 -1 -1 -1 -1 -1 -1 -1 99 -1 -1 -1 60 -1 8 -1 -1 -1 -1 -1 -1 -1 -1 -1
-1 -1 -1 -1 -1 -1 -1 -1 -1 -1 -1 -1 -1 80 -1 -1 68 -1 -1 -1 -1 84 -1 -1 -1 12 -1 -1 -1 -1
-1 -1 -1 -1 -1 -1 -1 35 86 -1 -1 -1 -1 -1 39 -1 -1 -1 -1 -1 -1 -1 -1 -1 -1 -1 -1 -1 -1 -1
-1 -1 -1 -1 -1 -1 -1 -1 -1 -1 -1 -1 -1 -1 -1 -1 -1 95 -1 -1 78 -1 -1 12 -1 -1 2 -1 -1 -1
-1 -1 -1 -1 -1 -1 -1 -1 -1 1 -1 -1 -1 -1 -1 -1 -1 -1 -1 -1 -1 -1 -1 -1 -1 2 -1 -1 -1 -1
-1 -1 -1 -1 -1 -1 -1 56 -1 -1 -1 -1 -1 92 -1 -1 -1 -1 -1 -1 -1 -1 -1 -1 -1 -1 -1 -1 -1 -1
-1 -1 -1 -1 -1 80 -1 -1 -1 41 -1 -1 -1 -1 -1 -1 -1 -1 67 -1 -1 -1 -1 -1 -1 -1 -1 -1 -1 -1
-1 -1 -1 -1 -1 -1 -1 -1 -1 -1 -1 -1 -1 -1 -1 19 -1 57 -1 -1 89 -1 -1 -1 -1 -1 -1 -1 -1 -1